

[NpcPos]	Flags	Index	PosX	PosY	Type	IsRangeCheck
0	0	1	224	43	3	1
1	0	2	210	18	2	1
2	0	3	214	59	5	1
3	0	4	200	18	1	1
4	0	5	196	29	1	1
5	0	6	201	55	4	1
6	0	7	169	42	1	1
7	0	8	166	77	7	0
8	0	9	145	47	7	0
9	0	10	187	22	7	0
10	0	11	181	11	6	0
11	1	15	221	13	6	1
12	1	16	174	209	6	1
13	1	17	206	248	6	1
14	1	18	52	25	6	1
15	1	19	77	222	6	1
16	1	20	185	181	6	1
17	1	21	217	173	6	1
18	1	22	196	98	6	1
19	0	23	21	248	6	1
20	0	24	228	41	6	0
21	0	25	75	54	7	0
22	0	26	42	140	7	0
23	0	27	90	246	7	0
24	0	28	193	223	7	0
25	0	34	203	37	1	1
26	0	49	193	56	1	0
27	0	50	0	0	1	0

[WarpLst]	NpcsIdx	NSetIdx	TargetIdx	LV	Fee	Type
0	11	0	9	50	0	0
1	15	0	46	3	0	0
2	16	0	52	0	0	1
3	16	1	84	0	0	1
4	16	2	121	0	0	1
5	16	3	152	1	0	2
6	16	4	179	1	0	2
7	17	0	56	0	0	1
8	17	1	82	0	0	1
9	17	2	205	0	0	1
10	17	3	153	1	0	2
11	17	4	180	1	0	2
12	18	0	210	0	0	1
13	18	1	170	1	0	2
14	18	2	181	1	0	2
15	18	3	194	1	0	2
16	18	4	295	0	0	2
17	19	0	41	0	0	1
18	19	1	75	0	0	1
19	19	2	135	0	0	1
20	20	0	42	0	0	1
21	20	1	83	0	0	1
22	21	0	85	0	0	1
23	22	0	59	0	0	1
24	22	1	144	0	0	1
25	22	2	201	0	0	1
26	23	0	127	0	0	1
27	23	1	134	0	0	1
28	23	2	138	0	0	1
29	23	3	142	0	0	1
30	23	4	145	0	0	1
31	23	5	206	0	0	1
32	23	6	307	155	0	2
33	23	7	308	155	0	2
34	23	8	309	155	0	2
35	24	0	206	110	0	0

[SkillLst]	NSetIdx	NpcsIdx	SkillIdx	SkillLv
0	0	2	1	1
1	1	2	2	1
2	2	2	209	1
3	3	2	5	1
4	4	2	17	1
5	5	2	208	1
6	6	2	19	1
7	7	2	22	1
8	8	2	25	1
9	9	2	9	1
10	10	2	68	1
11	11	2	33	1
12	12	2	21	1
13	13	2	29	1
14	14	2	38	1
15	15	2	42	1
16	16	2	46	1
17	17	2	54	1
18	18	2	37	1
19	19	2	58	1
20	20	2	100	1
21	21	2	148	1
22	22	2	230	1
23	23	2	252	1
24	24	2	424	1
25	25	2	101	1
26	26	2	102	1
27	27	2	103	1
28	28	2	104	1
29	29	2	105	1
30	30	2	106	1
31	31	2	425	1
32	32	2	426	1
33	33	2	427	1
34	34	2	428	1
35	35	2	429	1
36	36	2	430	1
37	37	2	107	1
38	38	2	149	1
39	39	2	237	1
40	40	2	238	1
41	41	2	256	1
42	42	2	431	1
43	43	2	253	1
44	44	2	108	1
45	45	2	109	1
46	46	2	110	1
47	47	2	111	1
48	48	2	112	1
49	49	2	113	1
50	50	2	432	1
51	51	2	433	1
52	52	2	434	1
53	53	2	435	1
54	54	2	436	1
55	55	2	437	1
56	56	2	114	1
57	57	2	150	1
58	58	2	259	1
59	59	2	438	1
60	60	2	257	1
61	61	2	239	1
62	62	2	240	1
63	63	2	115	1
64	64	2	116	1
65	65	2	117	1
66	66	2	118	1
67	67	2	119	1
68	68	2	120	1
69	69	2	439	1
70	70	2	440	1
71	71	2	441	1
72	72	2	442	1
73	73	2	443	1
74	74	2	444	1
75	75	2	255	1
76	76	2	121	1
77	77	2	151	1
78	78	2	241	1
79	79	2	445	1
80	80	2	258	1
81	81	2	122	1
82	82	2	123	1
83	83	2	124	1
84	84	2	125	1
85	85	2	126	1
86	86	2	127	1
87	87	2	254	1
88	88	2	446	1
89	89	2	447	1
90	90	2	448	1
91	91	2	449	1
92	92	2	450	1
93	93	2	451	1
94	94	2	152	1
95	95	2	243	1
96	96	2	242	1
97	97	2	244	1
98	98	2	260	1
99	99	2	245	1
100	100	2	246	1
101	101	2	153	1
102	102	2	223	1
103	103	2	154	1
104	104	2	272	1
105	105	2	261	1
106	106	2	155	1
107	107	2	273	1
108	108	2	262	1
109	109	2	156	1
110	110	2	247	1
111	111	2	263	1
112	112	2	270	1
113	113	2	269	1
114	114	2	271	1
115	115	2	274	1
116	116	2	300	1
117	117	2	301	1
118	118	2	300	2
119	119	2	301	2
120	120	2	305	1
121	121	2	306	1
122	122	2	300	3
123	123	2	301	3
124	124	2	302	1
125	125	2	303	1
126	126	2	304	1
127	127	2	305	2
128	128	2	306	2
129	129	2	300	4
130	130	2	301	4
131	131	2	302	2
132	132	2	303	2
133	133	2	304	2
134	134	2	305	3
135	135	2	306	3
136	136	2	300	5
137	137	2	301	5
138	138	2	302	3
139	139	2	303	3
140	140	2	304	3
141	141	2	305	4
142	142	2	306	4
143	143	2	300	6
144	144	2	301	6
145	145	2	302	4
146	146	2	303	4
147	147	2	304	4
148	148	2	305	5
149	149	2	306	5
150	150	2	300	7
151	151	2	301	7
152	152	2	302	5
153	153	2	303	5
154	154	2	304	5
155	155	2	305	6
156	156	2	306	6
157	157	2	300	8
158	158	2	301	8
159	159	2	302	6
160	160	2	303	6
161	161	2	304	6
162	162	2	305	7
163	163	2	306	7
164	164	2	300	9
165	165	2	301	9
166	166	2	302	7
167	167	2	303	7
168	168	2	304	7
169	169	2	305	8
170	170	2	306	8
171	171	2	300	10
172	172	2	301	10
173	173	2	302	8
174	174	2	303	8
175	175	2	304	8
176	176	2	305	9
177	177	2	306	9
178	178	2	310	1
179	179	2	311	1
180	180	2	312	1
181	181	2	313	1
182	182	2	314	1
183	183	2	310	2
184	184	2	311	2
185	185	2	312	2
186	186	2	313	2
187	187	2	314	2
188	188	2	310	3
189	189	2	311	3
190	190	2	312	3
191	191	2	313	3
192	192	2	314	3

[ShopLst]	NpcsIdx	NSetIdx	ItemKind	ItemOpt	ReputationClass	DurationIdx	Price
0	4	0	61	0	-19	0	400
1	4	1	62	0	-19	0	1200
2	4	2	63	0	-19	0	3600
3	4	3	64	0	-19	0	10800
4	4	4	65	0	-19	0	16200
5	4	32	46	0	-19	0	400
6	4	33	47	0	-19	0	1200
7	4	34	48	0	-19	0	3600
8	4	35	49	0	-19	0	10800
9	4	36	50	0	-19	0	16200
10	5	0	256	0	-19	0	400
11	5	2	257	0	-19	0	1200
12	5	4	258	0	-19	0	3600
13	5	6	259	0	-19	0	10800
14	5	16	121	0	-19	0	600
15	5	18	122	0	-19	0	1800
16	5	20	123	0	-19	0	5400
17	5	22	124	0	-19	0	16200
18	5	48	211	0	-19	0	400
19	5	50	212	0	-19	0	1200
20	5	52	213	0	-19	0	3600
21	5	54	214	0	-19	0	10800
22	5	64	166	0	-19	0	400
23	5	66	167	0	-19	0	1200
24	5	68	168	0	-19	0	3600
25	5	70	169	0	-19	0	10800
26	5	80	260	0	-19	0	16200
27	5	82	125	0	-19	0	24300
28	5	84	215	0	-19	0	16200
29	5	86	170	0	-19	0	16200
30	6	0	16	0	-19	0	400
31	6	2	31	0	-19	0	400
32	6	16	17	0	-19	0	1200
33	6	18	32	0	-19	0	1200
34	6	32	18	0	-19	0	3600
35	6	34	33	0	-19	0	3600
36	6	48	19	0	-19	0	10800
37	6	50	34	0	-19	0	10800
38	6	64	20	0	-19	0	16200
39	6	66	35	0	-19	0	16200
40	6	4	350	0	-19	0	800
41	6	6	285	0	-19	0	800
42	6	7	309	0	-19	0	800
43	6	12	354	0	-19	0	800
44	6	14	293	0	-19	0	800
45	6	15	312	0	-19	0	800
46	6	20	358	0	-19	0	800
47	6	22	301	0	-19	0	4000
48	6	80	1790	0	-19	0	400
49	6	81	1791	0	-19	0	1200
50	6	82	1792	0	-19	0	3600
51	6	83	1793	0	-19	0	10800
52	6	84	1794	0	-19	0	16200
53	6	112	626	1	-19	0	25000000
54	6	114	626	2	-19	0	25000000
55	6	116	626	3	-19	0	25000000
56	6	118	626	4	-19	0	25000000
57	6	120	626	5	-19	0	25000000
58	6	122	626	6	-19	0	25000000
59	6	124	626	7	-19	0	25000000
60	6	126	626	8	-19	0	25000000
61	7	0	3	50	-19	0	2000
62	7	1	3	100	-19	0	4000
63	7	2	3	250	-19	0	10000
64	7	3	3	500	-19	0	20000
65	7	8	4	50	-19	0	10000
66	7	9	4	100	-19	0	20000
67	7	10	4	250	-19	0	50000
68	7	11	4	500	-19	0	100000
69	7	16	5	50	-19	0	50000
70	7	17	5	100	-19	0	100000
71	7	18	5	250	-19	0	250000
72	7	19	5	500	-19	0	500000
73	7	24	1757	50	-19	0	70000
74	7	25	1757	100	-19	0	140000
75	7	26	1757	250	-19	0	350000
76	7	27	1757	500	-19	0	700000
77	7	32	6	50	-19	0	2000
78	7	33	6	100	-19	0	4000
79	7	34	6	250	-19	0	10000
80	7	35	6	500	-19	0	20000
81	7	40	7	50	-19	0	10000
82	7	41	7	100	-19	0	20000
83	7	42	7	250	-19	0	50000
84	7	43	7	500	-19	0	100000
85	7	48	8	50	-19	0	50000
86	7	49	8	100	-19	0	100000
87	7	50	8	250	-19	0	250000
88	7	51	8	500	-19	0	500000
89	7	56	1758	50	-19	0	70000
90	7	57	1758	100	-19	0	140000
91	7	58	1758	250	-19	0	350000
92	7	59	1758	500	-19	0	700000
93	7	64	12	50	-19	0	10000
94	7	65	12	100	-19	0	20000
95	7	66	12	250	-19	0	50000
96	7	67	12	500	-19	0	100000
97	7	80	626	9	-19	0	25000000
98	7	82	626	10	-19	0	25000000
99	7	84	626	11	-19	0	25000000
100	7	86	626	12	-19	0	25000000
101	7	88	626	13	-19	0	25000000
102	7	90	626	14	-19	0	25000000
103	7	92	626	15	-19	0	25000000
104	7	94	626	16	-19	0	25000000
105	7	96	626	18	-19	0	25000000
106	7	98	626	19	-19	0	25000000
107	7	100	626	22	-19	0	25000000
108	7	102	626	23	-19	0	25000000
109	7	104	626	24	-19	0	25000000
110	7	106	626	25	-19	0	25000000
111	7	108	626	26	-19	0	25000000
112	7	110	626	30	-19	0	25000000
113	7	112	626	32	-19	0	25000000
114	7	114	626	33	-19	0	25000000
115	7	116	626	34	-19	0	25000000
116	7	118	626	35	-19	0	25000000
117	7	120	626	36	-19	0	25000000
118	7	122	626	37	-19	0	25000000
119	7	124	626	38	-19	0	25000000
120	7	126	626	39	-19	0	25000000
121	50	0	3	50	-19	0	2000
122	50	1	3	100	-19	0	4000
123	50	2	3	250	-19	0	10000
124	50	3	3	500	-19	0	20000
125	50	8	4	50	-19	0	10000
126	50	9	4	100	-19	0	20000
127	50	10	4	250	-19	0	50000
128	50	11	4	500	-19	0	100000
129	50	16	5	50	-19	0	50000
130	50	17	5	100	-19	0	100000
131	50	18	5	250	-19	0	250000
132	50	19	5	500	-19	0	500000
133	50	24	1757	50	-19	0	70000
134	50	25	1757	100	-19	0	140000
135	50	26	1757	250	-19	0	350000
136	50	27	1757	500	-19	0	700000
137	50	32	6	50	-19	0	2000
138	50	33	6	100	-19	0	4000
139	50	34	6	250	-19	0	10000
140	50	35	6	500	-19	0	20000
141	50	40	7	50	-19	0	10000
142	50	41	7	100	-19	0	20000
143	50	42	7	250	-19	0	50000
144	50	43	7	500	-19	0	100000
145	50	48	8	50	-19	0	50000
146	50	49	8	100	-19	0	100000
147	50	50	8	250	-19	0	250000
148	50	51	8	500	-19	0	500000
149	50	56	1758	50	-19	0	70000
150	50	57	1758	100	-19	0	140000
151	50	58	1758	250	-19	0	350000
152	50	59	1758	500	-19	0	700000
153	50	64	12	50	-19	0	10000
154	50	65	12	100	-19	0	20000
155	50	66	12	250	-19	0	50000
156	50	67	12	500	-19	0	100000
